4387
2760
4608
2940
9696
1030
6350
9502
1844
8923
6393
9739
2014
7794
4822
8989
1079
6339
6063
6092
7653
3703
5547
4333
5049
2195
2901
4136
5049
3162
3196
6969
6970
3054
2871
2482
7551
1370
6918
6032
514
3973
9928
7218
5843
7040
6143
5812
8671
3069
